5 5
3 25 1 72 2 18 4 51 0 18
2 58 4 64 0 71 3 57 1 17
3 59 1 67 2 86 4 15 0 95
3 26 2 48 0 14 1 81 4 9
1 7 0 91 4 92 3 55 2 12
-1
0 1 3 5
0 3 5
0 1 4 5
0 2 3 4 5
0 2 3 5
-2
26 117 235
289 373
68 257 479
75 102 221 281
149 211 337

347 8
21 17 7 14 4
20 11 1 18 9
5 16 12 2 24
10 15 0 23 8
6 22 13 3 19
